<?xml version = "1.0" encoding="UTF-8" standalone="yes"?>
<CPLEXSolution version="1.2">
 <header
   problemName="IloCplex"
   solutionName="incumbent"
   solutionIndex="-1"
   objectiveValue="-9.2947532845442105"
   solutionTypeValue="3"
   solutionTypeString="primal"
   solutionStatusValue="101"
   solutionStatusString="integer optimal solution"
   solutionMethodString="mip"
   primalFeasible="1"
   dualFeasible="1"
   MIPNodes="0"
   MIPIterations="22"
   writeLevel="1"/>
 <quality
   epInt="1.0000000000000001e-05"
   epRHS="9.9999999999999995e-07"
   maxIntInfeas="0"
   maxPrimalInfeas="0"
   maxX="2.1278273268764316"
   maxSlack="8.2608346098216554"/>
 <linearConstraints>
  <constraint index="0" slack="0"/>
  <constraint index="1" slack="0"/>
  <constraint index="2" slack="0"/>
  <constraint index="3" slack="0"/>
  <constraint index="4" slack="0"/>
  <constraint index="5" slack="0"/>
  <constraint index="6" slack="0"/>
  <constraint index="7" slack="0"/>
  <constraint index="8" slack="0"/>
  <constraint index="9" slack="0"/>
  <constraint index="10" slack="0"/>
  <constraint index="11" slack="0"/>
  <constraint index="12" slack="0"/>
  <constraint index="13" slack="0"/>
  <constraint index="14" slack="0"/>
  <constraint index="15" slack="0"/>
  <constraint index="16" slack="-3.5433854451193114"/>
  <constraint index="17" slack="-1.056099121983586"/>
  <constraint index="18" slack="-8.2608346098216554"/>
  <constraint index="19" slack="0"/>
  <constraint index="20" slack="-3.1799204355390032"/>
  <constraint index="21" slack="-1.2841894286658739"/>
  <constraint index="22" slack="-0.45939690579701509"/>
  <constraint index="23" slack="-4.9831380143321446"/>
  <constraint index="24" slack="-0.96771702490398059"/>
  <constraint index="25" slack="-3.3812928445148458"/>
  <constraint index="26" slack="0"/>
  <constraint index="27" slack="-0.55228512380204808"/>
  <constraint index="28" slack="-1.4254143100583416"/>
  <constraint index="29" slack="-0.10529586966798943"/>
  <constraint index="30" slack="-1.1941740078355365"/>
  <constraint index="31" slack="-3.0194611586852691"/>
  <constraint index="32" slack="-4.7773072080663308"/>
  <constraint index="33" slack="-0.41475301437875833"/>
  <constraint index="34" slack="-1.1946596829610538"/>
  <constraint index="35" slack="-0.20067579386725631"/>
 </linearConstraints>
 <variables>
  <variable name="x_1_1" index="0" value="2.1278273268764316"/>
  <variable name="x_1_2" index="1" value="-0.62182158078393135"/>
  <variable name="x_1_3" index="2" value="-2.0652086524554139"/>
  <variable name="x_1_4" index="3" value="-0.4739327517182822"/>
  <variable name="x_1_5" index="4" value="1.1309352771337824"/>
  <variable name="x_2_1" index="5" value="-0.62182158078393135"/>
  <variable name="x_2_2" index="6" value="0.17191495667501722"/>
  <variable name="x_2_3" index="7" value="0.6033939549027163"/>
  <variable name="x_2_4" index="8" value="0.13807128095051202"/>
  <variable name="x_2_5" index="9" value="-0.33002961009758802"/>
  <variable name="x_3_1" index="10" value="-2.0652086524554139"/>
  <variable name="x_3_2" index="11" value="0.6033939549027163"/>
  <variable name="x_3_3" index="12" value="2.0025899780343961"/>
  <variable name="x_3_4" index="13" value="0.45632178771243315"/>
  <variable name="x_3_5" index="14" value="-1.090638548421893"/>
  <variable name="x_4_1" index="15" value="-0.4739327517182822"/>
  <variable name="x_4_2" index="16" value="0.13807128095051202"/>
  <variable name="x_4_3" index="17" value="0.45632178771243315"/>
  <variable name="x_4_4" index="18" value="0.10422760522600683"/>
  <variable name="x_4_5" index="19" value="-0.24849597227344938"/>
  <variable name="x_5_1" index="20" value="1.1309352771337824"/>
  <variable name="x_5_2" index="21" value="-0.33002961009758802"/>
  <variable name="x_5_3" index="22" value="-1.090638548421893"/>
  <variable name="x_5_4" index="23" value="-0.24849597227344938"/>
  <variable name="x_5_5" index="24" value="0.59344013318814826"/>
  <variable name="x26" index="25" value="-0"/>
  <variable name="x28" index="26" value="0"/>
 </variables>
</CPLEXSolution>
